c "899159.clq"
p edge 100 1344
e 1 17
e 1 36
e 1 97
e 2 17
e 2 18
e 2 19
e 2 20
e 2 21
e 2 22
e 2 23
e 2 25
e 2 27
e 2 28
e 2 33
e 2 35
e 2 43
e 2 44
e 2 46
e 2 48
e 2 49
e 2 56
e 2 58
e 2 61
e 2 63
e 2 72
e 2 79
e 2 84
e 2 89
e 2 99
e 2 100
e 3 17
e 3 18
e 3 19
e 3 20
e 3 21
e 3 22
e 3 24
e 3 26
e 3 28
e 3 31
e 3 51
e 3 53
e 3 54
e 3 64
e 3 65
e 3 66
e 3 79
e 3 81
e 3 84
e 3 90
e 4 17
e 4 18
e 4 19
e 4 20
e 4 21
e 4 22
e 4 24
e 4 28
e 4 30
e 4 31
e 4 34
e 4 39
e 4 52
e 4 56
e 4 68
e 4 76
e 4 80
e 5 17
e 5 18
e 5 19
e 5 20
e 5 21
e 5 22
e 5 23
e 5 24
e 5 25
e 5 27
e 5 29
e 5 33
e 5 34
e 5 38
e 5 40
e 5 41
e 5 51
e 5 52
e 5 68
e 5 69
e 5 78
e 5 82
e 6 17
e 6 18
e 6 20
e 6 21
e 6 22
e 6 23
e 6 26
e 6 27
e 6 35
e 6 38
e 6 40
e 6 47
e 6 48
e 6 50
e 6 59
e 6 68
e 6 71
e 6 74
e 6 80
e 6 99
e 7 17
e 7 18
e 7 19
e 7 20
e 7 21
e 7 22
e 7 23
e 7 24
e 7 25
e 7 26
e 7 28
e 7 29
e 7 32
e 7 33
e 7 34
e 7 35
e 7 38
e 7 41
e 7 46
e 7 49
e 7 57
e 7 66
e 7 67
e 7 72
e 7 73
e 7 74
e 7 81
e 7 87
e 7 88
e 7 89
e 7 90
e 8 17
e 8 18
e 8 19
e 8 20
e 8 24
e 8 27
e 8 32
e 8 42
e 8 47
e 8 48
e 8 53
e 8 69
e 9 17
e 9 18
e 9 19
e 9 20
e 9 21
e 9 22
e 9 23
e 9 24
e 9 25
e 9 27
e 9 28
e 9 29
e 9 30
e 9 33
e 9 35
e 9 37
e 9 39
e 9 41
e 9 43
e 9 44
e 9 47
e 9 49
e 9 50
e 9 52
e 9 55
e 9 56
e 9 62
e 9 73
e 9 74
e 9 75
e 9 76
e 9 80
e 9 86
e 9 91
e 9 100
e 10 17
e 10 18
e 10 19
e 10 20
e 10 21
e 10 22
e 10 25
e 10 26
e 10 30
e 10 31
e 10 33
e 10 37
e 10 39
e 10 43
e 10 44
e 10 45
e 10 47
e 10 50
e 10 54
e 10 57
e 10 58
e 10 60
e 10 62
e 10 65
e 10 70
e 10 87
e 10 94
e 10 98
e 10 99
e 11 17
e 11 18
e 11 19
e 11 20
e 11 21
e 11 23
e 11 24
e 11 26
e 11 27
e 11 28
e 11 33
e 11 34
e 11 40
e 11 41
e 11 42
e 11 48
e 11 57
e 11 58
e 11 61
e 11 62
e 11 63
e 11 64
e 11 67
e 11 85
e 11 86
e 11 89
e 11 90
e 11 93
e 11 94
e 11 95
e 11 98
e 12 17
e 12 18
e 12 19
e 12 23
e 12 28
e 12 30
e 12 44
e 12 47
e 12 48
e 12 52
e 12 53
e 12 54
e 12 70
e 12 78
e 12 81
e 12 84
e 13 17
e 13 18
e 13 19
e 13 20
e 13 21
e 13 22
e 13 23
e 13 24
e 13 25
e 13 28
e 13 29
e 13 30
e 13 32
e 13 34
e 13 36
e 13 37
e 13 40
e 13 42
e 13 45
e 13 59
e 13 60
e 13 66
e 13 69
e 13 79
e 13 80
e 13 87
e 13 91
e 13 93
e 13 97
e 13 99
e 13 100
e 14 17
e 14 18
e 14 19
e 14 21
e 14 22
e 14 23
e 14 25
e 14 26
e 14 29
e 14 30
e 14 31
e 14 36
e 14 49
e 14 56
e 14 62
e 14 63
e 14 64
e 14 84
e 15 17
e 15 18
e 15 19
e 15 20
e 15 21
e 15 22
e 15 26
e 15 31
e 15 35
e 15 36
e 15 37
e 15 41
e 15 44
e 15 46
e 15 49
e 15 50
e 15 55
e 15 64
e 15 67
e 15 76
e 15 85
e 15 87
e 15 92
e 15 95
e 16 17
e 16 18
e 16 19
e 16 20
e 16 23
e 16 24
e 16 25
e 16 29
e 16 30
e 16 32
e 16 35
e 16 38
e 16 39
e 16 42
e 16 45
e 16 53
e 16 55
e 16 60
e 16 61
e 16 63
e 16 65
e 16 69
e 16 71
e 16 72
e 16 75
e 16 86
e 16 92
e 17 18
e 17 19
e 17 20
e 17 21
e 17 22
e 17 23
e 17 24
e 17 25
e 17 26
e 17 27
e 17 28
e 17 29
e 17 30
e 17 31
e 17 32
e 17 33
e 17 34
e 17 35
e 17 36
e 17 37
e 17 38
e 17 39
e 17 41
e 17 43
e 17 44
e 17 45
e 17 46
e 17 48
e 17 49
e 17 50
e 17 51
e 17 53
e 17 54
e 17 55
e 17 56
e 17 57
e 17 58
e 17 59
e 17 65
e 17 66
e 17 70
e 17 73
e 17 74
e 17 77
e 17 83
e 17 85
e 17 86
e 17 89
e 17 97
e 17 98
e 17 100
e 18 19
e 18 20
e 18 21
e 18 22
e 18 23
e 18 24
e 18 25
e 18 26
e 18 27
e 18 28
e 18 29
e 18 30
e 18 31
e 18 32
e 18 33
e 18 34
e 18 36
e 18 37
e 18 38
e 18 39
e 18 40
e 18 41
e 18 43
e 18 44
e 18 45
e 18 48
e 18 52
e 18 53
e 18 54
e 18 57
e 18 59
e 18 61
e 18 66
e 18 67
e 18 71
e 18 74
e 18 75
e 18 76
e 18 80
e 18 82
e 18 94
e 18 99
e 18 100
e 19 20
e 19 21
e 19 22
e 19 23
e 19 24
e 19 25
e 19 26
e 19 27
e 19 28
e 19 29
e 19 30
e 19 31
e 19 33
e 19 36
e 19 37
e 19 38
e 19 40
e 19 41
e 19 42
e 19 43
e 19 44
e 19 45
e 19 47
e 19 49
e 19 50
e 19 51
e 19 53
e 19 54
e 19 55
e 19 56
e 19 57
e 19 58
e 19 59
e 19 60
e 19 63
e 19 65
e 19 70
e 19 71
e 19 75
e 19 77
e 19 78
e 19 81
e 19 82
e 19 83
e 19 91
e 19 92
e 19 95
e 20 21
e 20 22
e 20 23
e 20 24
e 20 25
e 20 26
e 20 27
e 20 29
e 20 31
e 20 32
e 20 33
e 20 34
e 20 35
e 20 36
e 20 38
e 20 39
e 20 40
e 20 42
e 20 43
e 20 44
e 20 45
e 20 50
e 20 54
e 20 55
e 20 58
e 20 61
e 20 63
e 20 64
e 20 65
e 20 67
e 20 70
e 20 71
e 20 73
e 20 74
e 20 75
e 20 76
e 20 77
e 20 79
e 20 80
e 20 81
e 20 84
e 20 85
e 20 87
e 20 91
e 20 93
e 20 95
e 20 99
e 20 100
e 21 22
e 21 23
e 21 24
e 21 25
e 21 26
e 21 27
e 21 28
e 21 29
e 21 30
e 21 31
e 21 32
e 21 33
e 21 34
e 21 35
e 21 36
e 21 37
e 21 38
e 21 39
e 21 40
e 21 42
e 21 43
e 21 44
e 21 45
e 21 46
e 21 47
e 21 52
e 21 53
e 21 57
e 21 60
e 21 63
e 21 65
e 21 68
e 21 71
e 21 77
e 21 78
e 21 79
e 21 83
e 21 84
e 21 92
e 21 98
e 21 100
e 22 23
e 22 24
e 22 25
e 22 26
e 22 27
e 22 30
e 22 31
e 22 32
e 22 35
e 22 36
e 22 37
e 22 39
e 22 40
e 22 43
e 22 46
e 22 48
e 22 50
e 22 51
e 22 52
e 22 54
e 22 55
e 22 56
e 22 57
e 22 58
e 22 59
e 22 60
e 22 62
e 22 63
e 22 65
e 22 68
e 22 71
e 22 76
e 22 80
e 22 82
e 22 86
e 22 89
e 22 90
e 22 98
e 22 99
e 22 100
e 23 24
e 23 25
e 23 26
e 23 27
e 23 28
e 23 31
e 23 32
e 23 34
e 23 37
e 23 40
e 23 46
e 23 49
e 23 55
e 23 57
e 23 63
e 23 66
e 23 68
e 23 75
e 23 93
e 23 97
e 24 25
e 24 26
e 24 27
e 24 28
e 24 29
e 24 30
e 24 31
e 24 32
e 24 33
e 24 34
e 24 35
e 24 38
e 24 39
e 24 41
e 24 42
e 24 43
e 24 46
e 24 48
e 24 53
e 24 55
e 24 56
e 24 58
e 24 59
e 24 60
e 24 61
e 24 72
e 24 76
e 24 77
e 24 78
e 24 80
e 24 81
e 24 83
e 24 84
e 24 86
e 24 90
e 24 93
e 24 95
e 25 26
e 25 27
e 25 28
e 25 29
e 25 30
e 25 31
e 25 37
e 25 40
e 25 41
e 25 43
e 25 45
e 25 47
e 25 49
e 25 52
e 25 53
e 25 58
e 25 60
e 25 65
e 25 66
e 25 67
e 25 68
e 25 69
e 25 70
e 25 72
e 25 73
e 25 75
e 25 82
e 25 84
e 25 87
e 25 88
e 25 90
e 25 93
e 25 94
e 25 97
e 26 27
e 26 28
e 26 29
e 26 30
e 26 31
e 26 32
e 26 35
e 26 36
e 26 40
e 26 46
e 26 50
e 26 54
e 26 57
e 26 60
e 26 61
e 26 62
e 26 64
e 26 65
e 26 66
e 26 67
e 26 71
e 26 74
e 26 78
e 26 80
e 26 82
e 26 93
e 26 96
e 26 98
e 27 29
e 27 30
e 27 32
e 27 33
e 27 34
e 27 36
e 27 38
e 27 47
e 27 49
e 27 50
e 27 51
e 27 52
e 27 54
e 27 58
e 27 62
e 27 63
e 27 64
e 27 67
e 27 68
e 27 69
e 27 70
e 27 74
e 27 79
e 27 85
e 27 93
e 27 98
e 28 29
e 28 34
e 28 36
e 28 38
e 28 41
e 28 43
e 28 45
e 28 48
e 28 50
e 28 57
e 28 60
e 28 61
e 28 62
e 28 64
e 28 72
e 28 79
e 28 80
e 28 81
e 28 83
e 28 89
e 28 91
e 28 98
e 29 32
e 29 33
e 29 35
e 29 37
e 29 39
e 29 40
e 29 41
e 29 42
e 29 43
e 29 44
e 29 47
e 29 51
e 29 52
e 29 54
e 29 56
e 29 59
e 29 71
e 29 85
e 29 87
e 29 93
e 29 94
e 30 31
e 30 32
e 30 33
e 30 36
e 30 37
e 30 38
e 30 40
e 30 42
e 30 43
e 30 46
e 30 52
e 30 53
e 30 55
e 30 63
e 30 64
e 30 66
e 30 71
e 30 74
e 30 82
e 30 88
e 30 89
e 30 97
e 31 32
e 31 34
e 31 35
e 31 36
e 31 37
e 31 38
e 31 41
e 31 44
e 31 45
e 31 48
e 31 62
e 31 67
e 31 69
e 31 72
e 31 73
e 31 74
e 31 81
e 31 85
e 31 90
e 31 91
e 31 94
e 31 95
e 32 33
e 32 34
e 32 35
e 32 37
e 32 39
e 32 42
e 32 50
e 32 51
e 32 53
e 32 55
e 32 58
e 32 67
e 32 68
e 32 76
e 32 84
e 32 85
e 32 93
e 32 94
e 33 34
e 33 38
e 33 40
e 33 42
e 33 44
e 33 45
e 33 46
e 33 47
e 33 48
e 33 49
e 33 51
e 33 53
e 33 58
e 33 62
e 33 65
e 33 66
e 33 70
e 33 71
e 33 72
e 33 74
e 33 79
e 33 82
e 33 83
e 33 88
e 33 89
e 33 90
e 33 96
e 33 99
e 34 35
e 34 36
e 34 38
e 34 39
e 34 42
e 34 43
e 34 44
e 34 47
e 34 48
e 34 50
e 34 51
e 34 58
e 34 59
e 34 62
e 34 64
e 34 66
e 34 67
e 34 68
e 34 70
e 34 75
e 34 76
e 34 77
e 34 80
e 34 83
e 34 89
e 34 91
e 34 94
e 34 95
e 34 96
e 35 37
e 35 39
e 35 40
e 35 41
e 35 46
e 35 49
e 35 52
e 35 60
e 35 63
e 35 67
e 35 68
e 35 69
e 35 70
e 35 73
e 35 75
e 35 77
e 35 83
e 35 84
e 35 91
e 35 92
e 35 94
e 35 96
e 35 98
e 36 39
e 36 42
e 36 43
e 36 45
e 36 47
e 36 48
e 36 49
e 36 51
e 36 52
e 36 53
e 36 54
e 36 57
e 36 58
e 36 59
e 36 61
e 36 67
e 36 70
e 36 71
e 36 72
e 36 73
e 36 77
e 36 78
e 36 80
e 36 82
e 36 86
e 36 90
e 36 94
e 36 95
e 37 47
e 37 50
e 37 54
e 37 56
e 37 62
e 37 64
e 37 65
e 37 66
e 37 75
e 37 81
e 37 83
e 37 90
e 37 94
e 37 97
e 37 99
e 38 39
e 38 41
e 38 42
e 38 44
e 38 51
e 38 52
e 38 61
e 38 69
e 38 72
e 38 73
e 38 76
e 38 82
e 38 87
e 38 88
e 38 92
e 39 42
e 39 44
e 39 46
e 39 56
e 39 62
e 39 64
e 39 65
e 39 66
e 39 75
e 39 79
e 39 86
e 39 87
e 39 89
e 40 41
e 40 45
e 40 46
e 40 54
e 40 55
e 40 60
e 40 61
e 40 63
e 40 68
e 40 69
e 40 81
e 40 83
e 40 88
e 40 93
e 40 100
e 41 45
e 41 48
e 41 49
e 41 56
e 41 59
e 41 69
e 41 71
e 41 73
e 41 83
e 41 89
e 41 92
e 42 51
e 42 55
e 42 56
e 42 65
e 42 69
e 42 74
e 42 76
e 42 85
e 42 87
e 42 92
e 43 46
e 43 47
e 43 50
e 43 55
e 43 56
e 43 57
e 43 62
e 43 65
e 43 67
e 43 75
e 43 79
e 43 80
e 43 98
e 44 45
e 44 46
e 44 49
e 44 52
e 44 59
e 44 68
e 44 69
e 44 72
e 44 73
e 44 74
e 44 78
e 44 79
e 44 87
e 44 97
e 44 98
e 45 47
e 45 50
e 45 51
e 45 55
e 45 56
e 45 57
e 45 60
e 45 69
e 45 73
e 45 81
e 45 82
e 45 88
e 45 93
e 46 51
e 46 61
e 46 64
e 46 75
e 46 80
e 46 81
e 46 90
e 46 91
e 46 96
e 47 48
e 47 49
e 47 51
e 47 53
e 47 54
e 47 61
e 47 67
e 47 83
e 47 89
e 47 100
e 48 61
e 48 62
e 48 76
e 48 79
e 48 80
e 48 92
e 49 58
e 49 59
e 49 67
e 49 70
e 49 77
e 49 78
e 49 84
e 49 95
e 50 57
e 50 59
e 50 60
e 50 64
e 50 77
e 50 84
e 50 86
e 50 94
e 50 95
e 50 97
e 50 98
e 50 100
e 51 52
e 51 53
e 51 55
e 51 63
e 51 72
e 51 75
e 51 76
e 51 77
e 51 78
e 51 83
e 51 85
e 51 86
e 51 91
e 51 94
e 51 96
e 51 99
e 52 54
e 52 56
e 52 60
e 52 63
e 52 68
e 52 70
e 52 71
e 52 78
e 52 82
e 52 90
e 52 97
e 52 100
e 53 78
e 53 79
e 53 81
e 53 86
e 53 96
e 54 57
e 54 59
e 54 63
e 54 65
e 54 66
e 54 70
e 54 74
e 54 77
e 54 90
e 54 91
e 54 92
e 54 93
e 54 100
e 55 69
e 55 72
e 55 75
e 55 77
e 56 59
e 56 60
e 56 61
e 56 64
e 56 75
e 56 77
e 56 87
e 56 89
e 56 92
e 56 99
e 57 58
e 57 64
e 57 94
e 57 95
e 58 70
e 58 72
e 58 83
e 58 86
e 58 92
e 58 98
e 59 62
e 59 66
e 59 78
e 59 84
e 59 91
e 59 95
e 60 61
e 60 66
e 60 70
e 60 71
e 60 81
e 60 92
e 60 96
e 61 85
e 61 96
e 62 72
e 62 79
e 62 82
e 62 85
e 63 72
e 63 73
e 63 83
e 63 96
e 64 73
e 64 76
e 64 78
e 64 82
e 64 90
e 65 71
e 65 84
e 65 93
e 66 68
e 66 86
e 66 88
e 67 68
e 67 69
e 67 78
e 67 99
e 68 73
e 68 74
e 68 79
e 68 83
e 68 89
e 68 100
e 69 78
e 69 82
e 69 90
e 69 97
e 69 99
e 70 73
e 70 84
e 70 87
e 70 88
e 70 95
e 71 74
e 71 80
e 71 81
e 71 85
e 71 97
e 71 100
e 72 76
e 72 79
e 72 91
e 72 93
e 73 76
e 73 82
e 73 85
e 73 88
e 73 91
e 74 81
e 74 85
e 74 89
e 74 95
e 74 96
e 75 77
e 76 77
e 76 88
e 76 92
e 76 93
e 76 96
e 76 98
e 76 99
e 77 87
e 78 87
e 78 95
e 78 97
e 79 88
e 80 85
e 80 88
e 81 86
e 81 88
e 81 99
e 82 87
e 82 98
e 82 100
e 83 84
e 83 91
e 83 96
e 84 86
e 84 88
e 84 90
e 84 95
e 84 96
e 85 86
e 85 98
e 86 88
e 86 96
e 87 89
e 87 92
e 88 91
e 88 92
e 90 97
e 91 94
e 93 94
e 93 96
e 93 97
e 95 97
e 95 99
